c File: flat50_3_0.col
c
c SOURCE: Joseph Culberson (joe@cs.ualberta.ca)
c DESCRIPTION: Quasi-random coloring problem
c              generated with flatness = 0
c                             probability = 0.139
c                             known coloring = 3
c                             random seed = 1749
c              Creation Date:  Tue Jun  9 12:16:55 1998
c Maximum degree = 8 Minimum degree = 0
c p edge 50 115
c cnf created by edge2cnf
p cnf 150 545
-1 -2 0
-1 -3 0
-2 -3 0
1 2 3 0
-4 -5 0
-4 -6 0
-5 -6 0
4 5 6 0
-7 -8 0
-7 -9 0
-8 -9 0
7 8 9 0
-10 -11 0
-10 -12 0
-11 -12 0
10 11 12 0
-13 -14 0
-13 -15 0
-14 -15 0
13 14 15 0
-16 -17 0
-16 -18 0
-17 -18 0
16 17 18 0
-19 -20 0
-19 -21 0
-20 -21 0
19 20 21 0
-22 -23 0
-22 -24 0
-23 -24 0
22 23 24 0
-25 -26 0
-25 -27 0
-26 -27 0
25 26 27 0
-28 -29 0
-28 -30 0
-29 -30 0
28 29 30 0
-31 -32 0
-31 -33 0
-32 -33 0
31 32 33 0
-34 -35 0
-34 -36 0
-35 -36 0
34 35 36 0
-37 -38 0
-37 -39 0
-38 -39 0
37 38 39 0
-40 -41 0
-40 -42 0
-41 -42 0
40 41 42 0
-43 -44 0
-43 -45 0
-44 -45 0
43 44 45 0
-46 -47 0
-46 -48 0
-47 -48 0
46 47 48 0
-49 -50 0
-49 -51 0
-50 -51 0
49 50 51 0
-52 -53 0
-52 -54 0
-53 -54 0
52 53 54 0
-55 -56 0
-55 -57 0
-56 -57 0
55 56 57 0
-58 -59 0
-58 -60 0
-59 -60 0
58 59 60 0
-61 -62 0
-61 -63 0
-62 -63 0
61 62 63 0
-64 -65 0
-64 -66 0
-65 -66 0
64 65 66 0
-67 -68 0
-67 -69 0
-68 -69 0
67 68 69 0
-70 -71 0
-70 -72 0
-71 -72 0
70 71 72 0
-73 -74 0
-73 -75 0
-74 -75 0
73 74 75 0
-76 -77 0
-76 -78 0
-77 -78 0
76 77 78 0
-79 -80 0
-79 -81 0
-80 -81 0
79 80 81 0
-82 -83 0
-82 -84 0
-83 -84 0
82 83 84 0
-85 -86 0
-85 -87 0
-86 -87 0
85 86 87 0
-88 -89 0
-88 -90 0
-89 -90 0
88 89 90 0
-91 -92 0
-91 -93 0
-92 -93 0
91 92 93 0
-94 -95 0
-94 -96 0
-95 -96 0
94 95 96 0
-97 -98 0
-97 -99 0
-98 -99 0
97 98 99 0
-100 -101 0
-100 -102 0
-101 -102 0
100 101 102 0
-103 -104 0
-103 -105 0
-104 -105 0
103 104 105 0
-106 -107 0
-106 -108 0
-107 -108 0
106 107 108 0
-109 -110 0
-109 -111 0
-110 -111 0
109 110 111 0
-112 -113 0
-112 -114 0
-113 -114 0
112 113 114 0
-115 -116 0
-115 -117 0
-116 -117 0
115 116 117 0
-118 -119 0
-118 -120 0
-119 -120 0
118 119 120 0
-121 -122 0
-121 -123 0
-122 -123 0
121 122 123 0
-124 -125 0
-124 -126 0
-125 -126 0
124 125 126 0
-127 -128 0
-127 -129 0
-128 -129 0
127 128 129 0
-130 -131 0
-130 -132 0
-131 -132 0
130 131 132 0
-133 -134 0
-133 -135 0
-134 -135 0
133 134 135 0
-136 -137 0
-136 -138 0
-137 -138 0
136 137 138 0
-139 -140 0
-139 -141 0
-140 -141 0
139 140 141 0
-142 -143 0
-142 -144 0
-143 -144 0
142 143 144 0
-145 -146 0
-145 -147 0
-146 -147 0
145 146 147 0
-148 -149 0
-148 -150 0
-149 -150 0
148 149 150 0
-61 -1 0
-62 -2 0
-63 -3 0
-73 -1 0
-74 -2 0
-75 -3 0
-97 -1 0
-98 -2 0
-99 -3 0
-103 -1 0
-104 -2 0
-105 -3 0
-106 -1 0
-107 -2 0
-108 -3 0
-124 -1 0
-125 -2 0
-126 -3 0
-127 -1 0
-128 -2 0
-129 -3 0
-67 -4 0
-68 -5 0
-69 -6 0
-109 -4 0
-110 -5 0
-111 -6 0
-148 -4 0
-149 -5 0
-150 -6 0
-55 -7 0
-56 -8 0
-57 -9 0
-88 -7 0
-89 -8 0
-90 -9 0
-94 -7 0
-95 -8 0
-96 -9 0
-136 -7 0
-137 -8 0
-138 -9 0
-79 -10 0
-80 -11 0
-81 -12 0
-88 -10 0
-89 -11 0
-90 -12 0
-100 -10 0
-101 -11 0
-102 -12 0
-121 -10 0
-122 -11 0
-123 -12 0
-127 -10 0
-128 -11 0
-129 -12 0
-142 -10 0
-143 -11 0
-144 -12 0
-148 -10 0
-149 -11 0
-150 -12 0
-61 -13 0
-62 -14 0
-63 -15 0
-76 -13 0
-77 -14 0
-78 -15 0
-91 -13 0
-92 -14 0
-93 -15 0
-118 -13 0
-119 -14 0
-120 -15 0
-55 -16 0
-56 -17 0
-57 -18 0
-97 -16 0
-98 -17 0
-99 -18 0
-106 -16 0
-107 -17 0
-108 -18 0
-112 -16 0
-113 -17 0
-114 -18 0
-133 -16 0
-134 -17 0
-135 -18 0
-142 -16 0
-143 -17 0
-144 -18 0
-52 -19 0
-53 -20 0
-54 -21 0
-85 -19 0
-86 -20 0
-87 -21 0
-100 -19 0
-101 -20 0
-102 -21 0
-103 -19 0
-104 -20 0
-105 -21 0
-115 -19 0
-116 -20 0
-117 -21 0
-124 -19 0
-125 -20 0
-126 -21 0
-82 -22 0
-83 -23 0
-84 -24 0
-85 -22 0
-86 -23 0
-87 -24 0
-91 -22 0
-92 -23 0
-93 -24 0
-100 -22 0
-101 -23 0
-102 -24 0
-118 -22 0
-119 -23 0
-120 -24 0
-142 -22 0
-143 -23 0
-144 -24 0
-73 -25 0
-74 -26 0
-75 -27 0
-79 -25 0
-80 -26 0
-81 -27 0
-91 -25 0
-92 -26 0
-93 -27 0
-100 -25 0
-101 -26 0
-102 -27 0
-115 -25 0
-116 -26 0
-117 -27 0
-61 -28 0
-62 -29 0
-63 -30 0
-76 -28 0
-77 -29 0
-78 -30 0
-82 -28 0
-83 -29 0
-84 -30 0
-97 -28 0
-98 -29 0
-99 -30 0
-61 -31 0
-62 -32 0
-63 -33 0
-94 -31 0
-95 -32 0
-96 -33 0
-130 -31 0
-131 -32 0
-132 -33 0
-148 -31 0
-149 -32 0
-150 -33 0
-82 -34 0
-83 -35 0
-84 -36 0
-124 -34 0
-125 -35 0
-126 -36 0
-145 -34 0
-146 -35 0
-147 -36 0
-76 -37 0
-77 -38 0
-78 -39 0
-82 -37 0
-83 -38 0
-84 -39 0
-103 -37 0
-104 -38 0
-105 -39 0
-109 -37 0
-110 -38 0
-111 -39 0
-139 -37 0
-140 -38 0
-141 -39 0
-148 -37 0
-149 -38 0
-150 -39 0
-76 -40 0
-77 -41 0
-78 -42 0
-94 -40 0
-95 -41 0
-96 -42 0
-139 -40 0
-140 -41 0
-141 -42 0
-142 -40 0
-143 -41 0
-144 -42 0
-52 -43 0
-53 -44 0
-54 -45 0
-139 -43 0
-140 -44 0
-141 -45 0
-94 -46 0
-95 -47 0
-96 -48 0
-121 -46 0
-122 -47 0
-123 -48 0
-133 -46 0
-134 -47 0
-135 -48 0
-97 -49 0
-98 -50 0
-99 -51 0
-136 -49 0
-137 -50 0
-138 -51 0
-145 -49 0
-146 -50 0
-147 -51 0
-121 -52 0
-122 -53 0
-123 -54 0
-142 -52 0
-143 -53 0
-144 -54 0
-118 -61 0
-119 -62 0
-120 -63 0
-124 -61 0
-125 -62 0
-126 -63 0
-139 -64 0
-140 -65 0
-141 -66 0
-145 -64 0
-146 -65 0
-147 -66 0
-115 -67 0
-116 -68 0
-117 -69 0
-109 -70 0
-110 -71 0
-111 -72 0
-118 -70 0
-119 -71 0
-120 -72 0
-142 -70 0
-143 -71 0
-144 -72 0
-145 -70 0
-146 -71 0
-147 -72 0
-121 -73 0
-122 -74 0
-123 -75 0
-130 -76 0
-131 -77 0
-132 -78 0
-145 -76 0
-146 -77 0
-147 -78 0
-106 -79 0
-107 -80 0
-108 -81 0
-124 -79 0
-125 -80 0
-126 -81 0
-130 -79 0
-131 -80 0
-132 -81 0
-142 -79 0
-143 -80 0
-144 -81 0
-115 -82 0
-116 -83 0
-117 -84 0
-127 -82 0
-128 -83 0
-129 -84 0
-142 -82 0
-143 -83 0
-144 -84 0
-148 -82 0
-149 -83 0
-150 -84 0
-112 -85 0
-113 -86 0
-114 -87 0
-136 -85 0
-137 -86 0
-138 -87 0
-118 -88 0
-119 -89 0
-120 -90 0
-127 -88 0
-128 -89 0
-129 -90 0
-127 -91 0
-128 -92 0
-129 -93 0
-133 -91 0
-134 -92 0
-135 -93 0
-139 -91 0
-140 -92 0
-141 -93 0
-127 -94 0
-128 -95 0
-129 -96 0
-139 -94 0
-140 -95 0
-141 -96 0
-106 -97 0
-107 -98 0
-108 -99 0
-118 -97 0
-119 -98 0
-120 -99 0
-145 -97 0
-146 -98 0
-147 -99 0
-103 -100 0
-104 -101 0
-105 -102 0
-109 -100 0
-110 -101 0
-111 -102 0
-112 -100 0
-113 -101 0
-114 -102 0
-130 -100 0
-131 -101 0
-132 -102 0
